c Qdimacs file from skolem function generator
p cnf 69 176
a 46 48 50 52 54 56 58 60 61 62 63 64 65 66 67 68 0
e 45 47 49 51 53 55 57 59 1 2 3 4 5 6 7 8 9 10 11 12 13 14 15 16 17 18 19 20 21 22 23 24 25 26 27 28 29 30 31 32 33 34 35 36 37 38 39 40 41 42 43 44 69 0
4 5 19 -24 0
-4 24 0
-4 -19 0
-4 -5 0
5 62 -6 0
5 -62 6 0
-5 -62 -6 0
-5 62 6 0
6 -7 -18 0
6 7 18 0
-6 7 -18 0
-6 -7 18 0
7 47 8 0
7 48 8 0
-7 -8 0
-7 -47 -48 0
8 47 -48 9 0
8 -47 48 9 0
-8 -9 0
-8 47 48 0
-8 -47 -48 0
9 49 10 0
9 50 10 0
-9 -10 0
-9 -49 -50 0
10 11 -17 0
-10 -11 0
-10 17 0
11 51 12 0
11 52 12 0
-11 -12 0
-11 -51 -52 0
12 51 -52 13 0
12 -51 52 13 0
-12 -13 0
-12 51 52 0
-12 -51 -52 0
13 53 14 0
13 54 14 0
-13 -14 0
-13 -53 -54 0
14 53 -54 15 0
14 -53 54 15 0
-14 -15 0
-14 53 54 0
-14 -53 -54 0
15 55 16 0
15 56 16 0
15 55 56 0
-15 -55 -56 0
-15 -56 -16 0
-15 -55 -16 0
16 -57 -58 0
-16 57 0
-16 58 0
17 49 -50 0
17 -49 50 0
-17 -49 -50 0
-17 49 50 0
18 45 -46 0
18 -45 46 0
-18 -45 -46 0
-18 45 46 0
19 -20 -22 0
19 20 22 0
-19 20 -22 0
-19 -20 22 0
20 45 21 0
20 46 21 0
-20 -21 0
-20 -45 -46 0
21 45 -46 7 0
21 -45 46 7 0
-21 -7 0
-21 45 46 0
-21 -45 -46 0
22 61 -23 0
22 -61 23 0
-22 -61 -23 0
-22 61 23 0
23 59 -60 0
23 -59 60 0
-23 -59 -60 0
-23 59 60 0
24 25 28 -30 0
-24 30 0
-24 -28 0
-24 -25 0
25 63 -26 0
25 -63 26 0
-25 -63 -26 0
-25 63 26 0
26 -9 -27 0
26 9 27 0
-26 9 -27 0
-26 -9 27 0
27 47 -48 0
27 -47 48 0
-27 -47 -48 0
-27 47 48 0
28 64 -29 0
28 -64 29 0
-28 -64 -29 0
-28 64 29 0
29 -11 -17 0
29 11 17 0
-29 11 -17 0
-29 -11 17 0
30 31 34 37 40 0
-30 -40 0
-30 -37 0
-30 -31 0
-30 -34 0
31 65 -32 0
31 -65 32 0
-31 -65 -32 0
-31 65 32 0
32 -13 -33 0
32 13 33 0
-32 13 -33 0
-32 -13 33 0
33 51 -52 0
33 -51 52 0
-33 -51 -52 0
-33 51 52 0
34 66 -35 0
34 -66 35 0
-34 -66 -35 0
-34 66 35 0
35 -15 -36 0
35 15 36 0
-35 15 -36 0
-35 -15 36 0
36 53 -54 0
36 -53 54 0
-36 -53 -54 0
-36 53 54 0
37 67 -38 0
37 -67 38 0
-37 -67 -38 0
-37 67 38 0
38 16 -39 0
38 -16 39 0
-38 -16 -39 0
-38 16 39 0
39 55 -56 0
39 -55 56 0
-39 -55 -56 0
-39 55 56 0
40 68 -41 0
40 -68 41 0
-40 -68 -41 0
-40 68 41 0
41 57 -58 0
41 -57 58 0
-41 -57 -58 0
-41 57 58 0
42 34 37 40 -43 0
-42 43 0
-42 -40 0
-42 -34 0
-42 -37 0
43 28 31 -44 0
-43 44 0
-43 -31 0
-43 -28 0
44 5 19 25 0
-44 -5 0
-44 -25 0
-44 -19 0
69 0
2 -4 0
-2 4 0
3 -42 0
-3 42 0
3 0

